WARNING: for repeatability, setting FPU to use double precision
============================[ Problem Statistics ]=============================
|                                                                             |
|  Number of variables:           100                                         |
|  Number of clauses:             449                                         |
|  Parse time:                   0.00 s                                       |
|  Simplification time:          0.00 s                                       |
|                                                                             |
============================[ Search Statistics ]==============================
| Conflicts |          ORIGINAL         |          LEARNT          | Progress |
|           |    Vars  Clauses Literals |    Limit  Clauses Lit/Cl |          |
===============================================================================
|       100 |     100      447     1340 |      163      100      8 |  0.010 % |
===============================================================================
restarts              : 2
conflicts             : 101            (40079 /sec)
decisions             : 160            (0.00 % random) (63492 /sec)
propagations          : 2769           (1098810 /sec)
conflict literals     : 766            (9.78 % deleted)
Memory used           : 13.00 MB
CPU time              : 0.00252 s

SATISFIABLE
